p cnf 180 3160
1 2 3 4 5 6 7 8 9 10 11 12 13 14 15 16 17 18 0
19 20 21 22 23 24 25 26 27 28 29 30 31 32 33 34 35 36 0
37 38 39 40 41 42 43 44 45 46 47 48 49 50 51 52 53 54 0
55 56 57 58 59 60 61 62 63 64 65 66 67 68 69 70 71 72 0
73 74 75 76 77 78 79 80 81 82 83 84 85 86 87 88 89 90 0
91 92 93 94 95 96 97 98 99 100 101 102 103 104 105 106 107 108 0
109 110 111 112 113 114 115 116 117 118 119 120 121 122 123 124 125 126 0
127 128 129 130 131 132 133 134 135 136 137 138 139 140 141 142 143 144 0
145 146 147 148 149 150 151 152 153 154 155 156 157 158 159 160 161 162 0
163 164 165 166 167 168 169 170 171 172 173 174 175 176 177 178 179 180 0
-1 -2 0
-1 -3 0
-1 -4 0
-1 -5 0
-1 -6 0
-1 -7 0
-1 -8 0
-1 -9 0
-1 -10 0
-1 -11 0
-1 -12 0
-1 -13 0
-1 -14 0
-1 -15 0
-1 -16 0
-1 -17 0
-1 -18 0
-2 -3 0
-2 -4 0
-2 -5 0
-2 -6 0
-2 -7 0
-2 -8 0
-2 -9 0
-2 -10 0
-2 -11 0
-2 -12 0
-2 -13 0
-2 -14 0
-2 -15 0
-2 -16 0
-2 -17 0
-2 -18 0
-3 -4 0
-3 -5 0
-3 -6 0
-3 -7 0
-3 -8 0
-3 -9 0
-3 -10 0
-3 -11 0
-3 -12 0
-3 -13 0
-3 -14 0
-3 -15 0
-3 -16 0
-3 -17 0
-3 -18 0
-4 -5 0
-4 -6 0
-4 -7 0
-4 -8 0
-4 -9 0
-4 -10 0
-4 -11 0
-4 -12 0
-4 -13 0
-4 -14 0
-4 -15 0
-4 -16 0
-4 -17 0
-4 -18 0
-5 -6 0
-5 -7 0
-5 -8 0
-5 -9 0
-5 -10 0
-5 -11 0
-5 -12 0
-5 -13 0
-5 -14 0
-5 -15 0
-5 -16 0
-5 -17 0
-5 -18 0
-6 -7 0
-6 -8 0
-6 -9 0
-6 -10 0
-6 -11 0
-6 -12 0
-6 -13 0
-6 -14 0
-6 -15 0
-6 -16 0
-6 -17 0
-6 -18 0
-7 -8 0
-7 -9 0
-7 -10 0
-7 -11 0
-7 -12 0
-7 -13 0
-7 -14 0
-7 -15 0
-7 -16 0
-7 -17 0
-7 -18 0
-8 -9 0
-8 -10 0
-8 -11 0
-8 -12 0
-8 -13 0
-8 -14 0
-8 -15 0
-8 -16 0
-8 -17 0
-8 -18 0
-9 -10 0
-9 -11 0
-9 -12 0
-9 -13 0
-9 -14 0
-9 -15 0
-9 -16 0
-9 -17 0
-9 -18 0
-10 -11 0
-10 -12 0
-10 -13 0
-10 -14 0
-10 -15 0
-10 -16 0
-10 -17 0
-10 -18 0
-11 -12 0
-11 -13 0
-11 -14 0
-11 -15 0
-11 -16 0
-11 -17 0
-11 -18 0
-12 -13 0
-12 -14 0
-12 -15 0
-12 -16 0
-12 -17 0
-12 -18 0
-13 -14 0
-13 -15 0
-13 -16 0
-13 -17 0
-13 -18 0
-14 -15 0
-14 -16 0
-14 -17 0
-14 -18 0
-15 -16 0
-15 -17 0
-15 -18 0
-16 -17 0
-16 -18 0
-17 -18 0
-19 -20 0
-19 -21 0
-19 -22 0
-19 -23 0
-19 -24 0
-19 -25 0
-19 -26 0
-19 -27 0
-19 -28 0
-19 -29 0
-19 -30 0
-19 -31 0
-19 -32 0
-19 -33 0
-19 -34 0
-19 -35 0
-19 -36 0
-20 -21 0
-20 -22 0
-20 -23 0
-20 -24 0
-20 -25 0
-20 -26 0
-20 -27 0
-20 -28 0
-20 -29 0
-20 -30 0
-20 -31 0
-20 -32 0
-20 -33 0
-20 -34 0
-20 -35 0
-20 -36 0
-21 -22 0
-21 -23 0
-21 -24 0
-21 -25 0
-21 -26 0
-21 -27 0
-21 -28 0
-21 -29 0
-21 -30 0
-21 -31 0
-21 -32 0
-21 -33 0
-21 -34 0
-21 -35 0
-21 -36 0
-22 -23 0
-22 -24 0
-22 -25 0
-22 -26 0
-22 -27 0
-22 -28 0
-22 -29 0
-22 -30 0
-22 -31 0
-22 -32 0
-22 -33 0
-22 -34 0
-22 -35 0
-22 -36 0
-23 -24 0
-23 -25 0
-23 -26 0
-23 -27 0
-23 -28 0
-23 -29 0
-23 -30 0
-23 -31 0
-23 -32 0
-23 -33 0
-23 -34 0
-23 -35 0
-23 -36 0
-24 -25 0
-24 -26 0
-24 -27 0
-24 -28 0
-24 -29 0
-24 -30 0
-24 -31 0
-24 -32 0
-24 -33 0
-24 -34 0
-24 -35 0
-24 -36 0
-25 -26 0
-25 -27 0
-25 -28 0
-25 -29 0
-25 -30 0
-25 -31 0
-25 -32 0
-25 -33 0
-25 -34 0
-25 -35 0
-25 -36 0
-26 -27 0
-26 -28 0
-26 -29 0
-26 -30 0
-26 -31 0
-26 -32 0
-26 -33 0
-26 -34 0
-26 -35 0
-26 -36 0
-27 -28 0
-27 -29 0
-27 -30 0
-27 -31 0
-27 -32 0
-27 -33 0
-27 -34 0
-27 -35 0
-27 -36 0
-28 -29 0
-28 -30 0
-28 -31 0
-28 -32 0
-28 -33 0
-28 -34 0
-28 -35 0
-28 -36 0
-29 -30 0
-29 -31 0
-29 -32 0
-29 -33 0
-29 -34 0
-29 -35 0
-29 -36 0
-30 -31 0
-30 -32 0
-30 -33 0
-30 -34 0
-30 -35 0
-30 -36 0
-31 -32 0
-31 -33 0
-31 -34 0
-31 -35 0
-31 -36 0
-32 -33 0
-32 -34 0
-32 -35 0
-32 -36 0
-33 -34 0
-33 -35 0
-33 -36 0
-34 -35 0
-34 -36 0
-35 -36 0
-37 -38 0
-37 -39 0
-37 -40 0
-37 -41 0
-37 -42 0
-37 -43 0
-37 -44 0
-37 -45 0
-37 -46 0
-37 -47 0
-37 -48 0
-37 -49 0
-37 -50 0
-37 -51 0
-37 -52 0
-37 -53 0
-37 -54 0
-38 -39 0
-38 -40 0
-38 -41 0
-38 -42 0
-38 -43 0
-38 -44 0
-38 -45 0
-38 -46 0
-38 -47 0
-38 -48 0
-38 -49 0
-38 -50 0
-38 -51 0
-38 -52 0
-38 -53 0
-38 -54 0
-39 -40 0
-39 -41 0
-39 -42 0
-39 -43 0
-39 -44 0
-39 -45 0
-39 -46 0
-39 -47 0
-39 -48 0
-39 -49 0
-39 -50 0
-39 -51 0
-39 -52 0
-39 -53 0
-39 -54 0
-40 -41 0
-40 -42 0
-40 -43 0
-40 -44 0
-40 -45 0
-40 -46 0
-40 -47 0
-40 -48 0
-40 -49 0
-40 -50 0
-40 -51 0
-40 -52 0
-40 -53 0
-40 -54 0
-41 -42 0
-41 -43 0
-41 -44 0
-41 -45 0
-41 -46 0
-41 -47 0
-41 -48 0
-41 -49 0
-41 -50 0
-41 -51 0
-41 -52 0
-41 -53 0
-41 -54 0
-42 -43 0
-42 -44 0
-42 -45 0
-42 -46 0
-42 -47 0
-42 -48 0
-42 -49 0
-42 -50 0
-42 -51 0
-42 -52 0
-42 -53 0
-42 -54 0
-43 -44 0
-43 -45 0
-43 -46 0
-43 -47 0
-43 -48 0
-43 -49 0
-43 -50 0
-43 -51 0
-43 -52 0
-43 -53 0
-43 -54 0
-44 -45 0
-44 -46 0
-44 -47 0
-44 -48 0
-44 -49 0
-44 -50 0
-44 -51 0
-44 -52 0
-44 -53 0
-44 -54 0
-45 -46 0
-45 -47 0
-45 -48 0
-45 -49 0
-45 -50 0
-45 -51 0
-45 -52 0
-45 -53 0
-45 -54 0
-46 -47 0
-46 -48 0
-46 -49 0
-46 -50 0
-46 -51 0
-46 -52 0
-46 -53 0
-46 -54 0
-47 -48 0
-47 -49 0
-47 -50 0
-47 -51 0
-47 -52 0
-47 -53 0
-47 -54 0
-48 -49 0
-48 -50 0
-48 -51 0
-48 -52 0
-48 -53 0
-48 -54 0
-49 -50 0
-49 -51 0
-49 -52 0
-49 -53 0
-49 -54 0
-50 -51 0
-50 -52 0
-50 -53 0
-50 -54 0
-51 -52 0
-51 -53 0
-51 -54 0
-52 -53 0
-52 -54 0
-53 -54 0
-55 -56 0
-55 -57 0
-55 -58 0
-55 -59 0
-55 -60 0
-55 -61 0
-55 -62 0
-55 -63 0
-55 -64 0
-55 -65 0
-55 -66 0
-55 -67 0
-55 -68 0
-55 -69 0
-55 -70 0
-55 -71 0
-55 -72 0
-56 -57 0
-56 -58 0
-56 -59 0
-56 -60 0
-56 -61 0
-56 -62 0
-56 -63 0
-56 -64 0
-56 -65 0
-56 -66 0
-56 -67 0
-56 -68 0
-56 -69 0
-56 -70 0
-56 -71 0
-56 -72 0
-57 -58 0
-57 -59 0
-57 -60 0
-57 -61 0
-57 -62 0
-57 -63 0
-57 -64 0
-57 -65 0
-57 -66 0
-57 -67 0
-57 -68 0
-57 -69 0
-57 -70 0
-57 -71 0
-57 -72 0
-58 -59 0
-58 -60 0
-58 -61 0
-58 -62 0
-58 -63 0
-58 -64 0
-58 -65 0
-58 -66 0
-58 -67 0
-58 -68 0
-58 -69 0
-58 -70 0
-58 -71 0
-58 -72 0
-59 -60 0
-59 -61 0
-59 -62 0
-59 -63 0
-59 -64 0
-59 -65 0
-59 -66 0
-59 -67 0
-59 -68 0
-59 -69 0
-59 -70 0
-59 -71 0
-59 -72 0
-60 -61 0
-60 -62 0
-60 -63 0
-60 -64 0
-60 -65 0
-60 -66 0
-60 -67 0
-60 -68 0
-60 -69 0
-60 -70 0
-60 -71 0
-60 -72 0
-61 -62 0
-61 -63 0
-61 -64 0
-61 -65 0
-61 -66 0
-61 -67 0
-61 -68 0
-61 -69 0
-61 -70 0
-61 -71 0
-61 -72 0
-62 -63 0
-62 -64 0
-62 -65 0
-62 -66 0
-62 -67 0
-62 -68 0
-62 -69 0
-62 -70 0
-62 -71 0
-62 -72 0
-63 -64 0
-63 -65 0
-63 -66 0
-63 -67 0
-63 -68 0
-63 -69 0
-63 -70 0
-63 -71 0
-63 -72 0
-64 -65 0
-64 -66 0
-64 -67 0
-64 -68 0
-64 -69 0
-64 -70 0
-64 -71 0
-64 -72 0
-65 -66 0
-65 -67 0
-65 -68 0
-65 -69 0
-65 -70 0
-65 -71 0
-65 -72 0
-66 -67 0
-66 -68 0
-66 -69 0
-66 -70 0
-66 -71 0
-66 -72 0
-67 -68 0
-67 -69 0
-67 -70 0
-67 -71 0
-67 -72 0
-68 -69 0
-68 -70 0
-68 -71 0
-68 -72 0
-69 -70 0
-69 -71 0
-69 -72 0
-70 -71 0
-70 -72 0
-71 -72 0
-73 -74 0
-73 -75 0
-73 -76 0
-73 -77 0
-73 -78 0
-73 -79 0
-73 -80 0
-73 -81 0
-73 -82 0
-73 -83 0
-73 -84 0
-73 -85 0
-73 -86 0
-73 -87 0
-73 -88 0
-73 -89 0
-73 -90 0
-74 -75 0
-74 -76 0
-74 -77 0
-74 -78 0
-74 -79 0
-74 -80 0
-74 -81 0
-74 -82 0
-74 -83 0
-74 -84 0
-74 -85 0
-74 -86 0
-74 -87 0
-74 -88 0
-74 -89 0
-74 -90 0
-75 -76 0
-75 -77 0
-75 -78 0
-75 -79 0
-75 -80 0
-75 -81 0
-75 -82 0
-75 -83 0
-75 -84 0
-75 -85 0
-75 -86 0
-75 -87 0
-75 -88 0
-75 -89 0
-75 -90 0
-76 -77 0
-76 -78 0
-76 -79 0
-76 -80 0
-76 -81 0
-76 -82 0
-76 -83 0
-76 -84 0
-76 -85 0
-76 -86 0
-76 -87 0
-76 -88 0
-76 -89 0
-76 -90 0
-77 -78 0
-77 -79 0
-77 -80 0
-77 -81 0
-77 -82 0
-77 -83 0
-77 -84 0
-77 -85 0
-77 -86 0
-77 -87 0
-77 -88 0
-77 -89 0
-77 -90 0
-78 -79 0
-78 -80 0
-78 -81 0
-78 -82 0
-78 -83 0
-78 -84 0
-78 -85 0
-78 -86 0
-78 -87 0
-78 -88 0
-78 -89 0
-78 -90 0
-79 -80 0
-79 -81 0
-79 -82 0
-79 -83 0
-79 -84 0
-79 -85 0
-79 -86 0
-79 -87 0
-79 -88 0
-79 -89 0
-79 -90 0
-80 -81 0
-80 -82 0
-80 -83 0
-80 -84 0
-80 -85 0
-80 -86 0
-80 -87 0
-80 -88 0
-80 -89 0
-80 -90 0
-81 -82 0
-81 -83 0
-81 -84 0
-81 -85 0
-81 -86 0
-81 -87 0
-81 -88 0
-81 -89 0
-81 -90 0
-82 -83 0
-82 -84 0
-82 -85 0
-82 -86 0
-82 -87 0
-82 -88 0
-82 -89 0
-82 -90 0
-83 -84 0
-83 -85 0
-83 -86 0
-83 -87 0
-83 -88 0
-83 -89 0
-83 -90 0
-84 -85 0
-84 -86 0
-84 -87 0
-84 -88 0
-84 -89 0
-84 -90 0
-85 -86 0
-85 -87 0
-85 -88 0
-85 -89 0
-85 -90 0
-86 -87 0
-86 -88 0
-86 -89 0
-86 -90 0
-87 -88 0
-87 -89 0
-87 -90 0
-88 -89 0
-88 -90 0
-89 -90 0
-91 -92 0
-91 -93 0
-91 -94 0
-91 -95 0
-91 -96 0
-91 -97 0
-91 -98 0
-91 -99 0
-91 -100 0
-91 -101 0
-91 -102 0
-91 -103 0
-91 -104 0
-91 -105 0
-91 -106 0
-91 -107 0
-91 -108 0
-92 -93 0
-92 -94 0
-92 -95 0
-92 -96 0
-92 -97 0
-92 -98 0
-92 -99 0
-92 -100 0
-92 -101 0
-92 -102 0
-92 -103 0
-92 -104 0
-92 -105 0
-92 -106 0
-92 -107 0
-92 -108 0
-93 -94 0
-93 -95 0
-93 -96 0
-93 -97 0
-93 -98 0
-93 -99 0
-93 -100 0
-93 -101 0
-93 -102 0
-93 -103 0
-93 -104 0
-93 -105 0
-93 -106 0
-93 -107 0
-93 -108 0
-94 -95 0
-94 -96 0
-94 -97 0
-94 -98 0
-94 -99 0
-94 -100 0
-94 -101 0
-94 -102 0
-94 -103 0
-94 -104 0
-94 -105 0
-94 -106 0
-94 -107 0
-94 -108 0
-95 -96 0
-95 -97 0
-95 -98 0
-95 -99 0
-95 -100 0
-95 -101 0
-95 -102 0
-95 -103 0
-95 -104 0
-95 -105 0
-95 -106 0
-95 -107 0
-95 -108 0
-96 -97 0
-96 -98 0
-96 -99 0
-96 -100 0
-96 -101 0
-96 -102 0
-96 -103 0
-96 -104 0
-96 -105 0
-96 -106 0
-96 -107 0
-96 -108 0
-97 -98 0
-97 -99 0
-97 -100 0
-97 -101 0
-97 -102 0
-97 -103 0
-97 -104 0
-97 -105 0
-97 -106 0
-97 -107 0
-97 -108 0
-98 -99 0
-98 -100 0
-98 -101 0
-98 -102 0
-98 -103 0
-98 -104 0
-98 -105 0
-98 -106 0
-98 -107 0
-98 -108 0
-99 -100 0
-99 -101 0
-99 -102 0
-99 -103 0
-99 -104 0
-99 -105 0
-99 -106 0
-99 -107 0
-99 -108 0
-100 -101 0
-100 -102 0
-100 -103 0
-100 -104 0
-100 -105 0
-100 -106 0
-100 -107 0
-100 -108 0
-101 -102 0
-101 -103 0
-101 -104 0
-101 -105 0
-101 -106 0
-101 -107 0
-101 -108 0
-102 -103 0
-102 -104 0
-102 -105 0
-102 -106 0
-102 -107 0
-102 -108 0
-103 -104 0
-103 -105 0
-103 -106 0
-103 -107 0
-103 -108 0
-104 -105 0
-104 -106 0
-104 -107 0
-104 -108 0
-105 -106 0
-105 -107 0
-105 -108 0
-106 -107 0
-106 -108 0
-107 -108 0
-109 -110 0
-109 -111 0
-109 -112 0
-109 -113 0
-109 -114 0
-109 -115 0
-109 -116 0
-109 -117 0
-109 -118 0
-109 -119 0
-109 -120 0
-109 -121 0
-109 -122 0
-109 -123 0
-109 -124 0
-109 -125 0
-109 -126 0
-110 -111 0
-110 -112 0
-110 -113 0
-110 -114 0
-110 -115 0
-110 -116 0
-110 -117 0
-110 -118 0
-110 -119 0
-110 -120 0
-110 -121 0
-110 -122 0
-110 -123 0
-110 -124 0
-110 -125 0
-110 -126 0
-111 -112 0
-111 -113 0
-111 -114 0
-111 -115 0
-111 -116 0
-111 -117 0
-111 -118 0
-111 -119 0
-111 -120 0
-111 -121 0
-111 -122 0
-111 -123 0
-111 -124 0
-111 -125 0
-111 -126 0
-112 -113 0
-112 -114 0
-112 -115 0
-112 -116 0
-112 -117 0
-112 -118 0
-112 -119 0
-112 -120 0
-112 -121 0
-112 -122 0
-112 -123 0
-112 -124 0
-112 -125 0
-112 -126 0
-113 -114 0
-113 -115 0
-113 -116 0
-113 -117 0
-113 -118 0
-113 -119 0
-113 -120 0
-113 -121 0
-113 -122 0
-113 -123 0
-113 -124 0
-113 -125 0
-113 -126 0
-114 -115 0
-114 -116 0
-114 -117 0
-114 -118 0
-114 -119 0
-114 -120 0
-114 -121 0
-114 -122 0
-114 -123 0
-114 -124 0
-114 -125 0
-114 -126 0
-115 -116 0
-115 -117 0
-115 -118 0
-115 -119 0
-115 -120 0
-115 -121 0
-115 -122 0
-115 -123 0
-115 -124 0
-115 -125 0
-115 -126 0
-116 -117 0
-116 -118 0
-116 -119 0
-116 -120 0
-116 -121 0
-116 -122 0
-116 -123 0
-116 -124 0
-116 -125 0
-116 -126 0
-117 -118 0
-117 -119 0
-117 -120 0
-117 -121 0
-117 -122 0
-117 -123 0
-117 -124 0
-117 -125 0
-117 -126 0
-118 -119 0
-118 -120 0
-118 -121 0
-118 -122 0
-118 -123 0
-118 -124 0
-118 -125 0
-118 -126 0
-119 -120 0
-119 -121 0
-119 -122 0
-119 -123 0
-119 -124 0
-119 -125 0
-119 -126 0
-120 -121 0
-120 -122 0
-120 -123 0
-120 -124 0
-120 -125 0
-120 -126 0
-121 -122 0
-121 -123 0
-121 -124 0
-121 -125 0
-121 -126 0
-122 -123 0
-122 -124 0
-122 -125 0
-122 -126 0
-123 -124 0
-123 -125 0
-123 -126 0
-124 -125 0
-124 -126 0
-125 -126 0
-127 -128 0
-127 -129 0
-127 -130 0
-127 -131 0
-127 -132 0
-127 -133 0
-127 -134 0
-127 -135 0
-127 -136 0
-127 -137 0
-127 -138 0
-127 -139 0
-127 -140 0
-127 -141 0
-127 -142 0
-127 -143 0
-127 -144 0
-128 -129 0
-128 -130 0
-128 -131 0
-128 -132 0
-128 -133 0
-128 -134 0
-128 -135 0
-128 -136 0
-128 -137 0
-128 -138 0
-128 -139 0
-128 -140 0
-128 -141 0
-128 -142 0
-128 -143 0
-128 -144 0
-129 -130 0
-129 -131 0
-129 -132 0
-129 -133 0
-129 -134 0
-129 -135 0
-129 -136 0
-129 -137 0
-129 -138 0
-129 -139 0
-129 -140 0
-129 -141 0
-129 -142 0
-129 -143 0
-129 -144 0
-130 -131 0
-130 -132 0
-130 -133 0
-130 -134 0
-130 -135 0
-130 -136 0
-130 -137 0
-130 -138 0
-130 -139 0
-130 -140 0
-130 -141 0
-130 -142 0
-130 -143 0
-130 -144 0
-131 -132 0
-131 -133 0
-131 -134 0
-131 -135 0
-131 -136 0
-131 -137 0
-131 -138 0
-131 -139 0
-131 -140 0
-131 -141 0
-131 -142 0
-131 -143 0
-131 -144 0
-132 -133 0
-132 -134 0
-132 -135 0
-132 -136 0
-132 -137 0
-132 -138 0
-132 -139 0
-132 -140 0
-132 -141 0
-132 -142 0
-132 -143 0
-132 -144 0
-133 -134 0
-133 -135 0
-133 -136 0
-133 -137 0
-133 -138 0
-133 -139 0
-133 -140 0
-133 -141 0
-133 -142 0
-133 -143 0
-133 -144 0
-134 -135 0
-134 -136 0
-134 -137 0
-134 -138 0
-134 -139 0
-134 -140 0
-134 -141 0
-134 -142 0
-134 -143 0
-134 -144 0
-135 -136 0
-135 -137 0
-135 -138 0
-135 -139 0
-135 -140 0
-135 -141 0
-135 -142 0
-135 -143 0
-135 -144 0
-136 -137 0
-136 -138 0
-136 -139 0
-136 -140 0
-136 -141 0
-136 -142 0
-136 -143 0
-136 -144 0
-137 -138 0
-137 -139 0
-137 -140 0
-137 -141 0
-137 -142 0
-137 -143 0
-137 -144 0
-138 -139 0
-138 -140 0
-138 -141 0
-138 -142 0
-138 -143 0
-138 -144 0
-139 -140 0
-139 -141 0
-139 -142 0
-139 -143 0
-139 -144 0
-140 -141 0
-140 -142 0
-140 -143 0
-140 -144 0
-141 -142 0
-141 -143 0
-141 -144 0
-142 -143 0
-142 -144 0
-143 -144 0
-145 -146 0
-145 -147 0
-145 -148 0
-145 -149 0
-145 -150 0
-145 -151 0
-145 -152 0
-145 -153 0
-145 -154 0
-145 -155 0
-145 -156 0
-145 -157 0
-145 -158 0
-145 -159 0
-145 -160 0
-145 -161 0
-145 -162 0
-146 -147 0
-146 -148 0
-146 -149 0
-146 -150 0
-146 -151 0
-146 -152 0
-146 -153 0
-146 -154 0
-146 -155 0
-146 -156 0
-146 -157 0
-146 -158 0
-146 -159 0
-146 -160 0
-146 -161 0
-146 -162 0
-147 -148 0
-147 -149 0
-147 -150 0
-147 -151 0
-147 -152 0
-147 -153 0
-147 -154 0
-147 -155 0
-147 -156 0
-147 -157 0
-147 -158 0
-147 -159 0
-147 -160 0
-147 -161 0
-147 -162 0
-148 -149 0
-148 -150 0
-148 -151 0
-148 -152 0
-148 -153 0
-148 -154 0
-148 -155 0
-148 -156 0
-148 -157 0
-148 -158 0
-148 -159 0
-148 -160 0
-148 -161 0
-148 -162 0
-149 -150 0
-149 -151 0
-149 -152 0
-149 -153 0
-149 -154 0
-149 -155 0
-149 -156 0
-149 -157 0
-149 -158 0
-149 -159 0
-149 -160 0
-149 -161 0
-149 -162 0
-150 -151 0
-150 -152 0
-150 -153 0
-150 -154 0
-150 -155 0
-150 -156 0
-150 -157 0
-150 -158 0
-150 -159 0
-150 -160 0
-150 -161 0
-150 -162 0
-151 -152 0
-151 -153 0
-151 -154 0
-151 -155 0
-151 -156 0
-151 -157 0
-151 -158 0
-151 -159 0
-151 -160 0
-151 -161 0
-151 -162 0
-152 -153 0
-152 -154 0
-152 -155 0
-152 -156 0
-152 -157 0
-152 -158 0
-152 -159 0
-152 -160 0
-152 -161 0
-152 -162 0
-153 -154 0
-153 -155 0
-153 -156 0
-153 -157 0
-153 -158 0
-153 -159 0
-153 -160 0
-153 -161 0
-153 -162 0
-154 -155 0
-154 -156 0
-154 -157 0
-154 -158 0
-154 -159 0
-154 -160 0
-154 -161 0
-154 -162 0
-155 -156 0
-155 -157 0
-155 -158 0
-155 -159 0
-155 -160 0
-155 -161 0
-155 -162 0
-156 -157 0
-156 -158 0
-156 -159 0
-156 -160 0
-156 -161 0
-156 -162 0
-157 -158 0
-157 -159 0
-157 -160 0
-157 -161 0
-157 -162 0
-158 -159 0
-158 -160 0
-158 -161 0
-158 -162 0
-159 -160 0
-159 -161 0
-159 -162 0
-160 -161 0
-160 -162 0
-161 -162 0
-163 -164 0
-163 -165 0
-163 -166 0
-163 -167 0
-163 -168 0
-163 -169 0
-163 -170 0
-163 -171 0
-163 -172 0
-163 -173 0
-163 -174 0
-163 -175 0
-163 -176 0
-163 -177 0
-163 -178 0
-163 -179 0
-163 -180 0
-164 -165 0
-164 -166 0
-164 -167 0
-164 -168 0
-164 -169 0
-164 -170 0
-164 -171 0
-164 -172 0
-164 -173 0
-164 -174 0
-164 -175 0
-164 -176 0
-164 -177 0
-164 -178 0
-164 -179 0
-164 -180 0
-165 -166 0
-165 -167 0
-165 -168 0
-165 -169 0
-165 -170 0
-165 -171 0
-165 -172 0
-165 -173 0
-165 -174 0
-165 -175 0
-165 -176 0
-165 -177 0
-165 -178 0
-165 -179 0
-165 -180 0
-166 -167 0
-166 -168 0
-166 -169 0
-166 -170 0
-166 -171 0
-166 -172 0
-166 -173 0
-166 -174 0
-166 -175 0
-166 -176 0
-166 -177 0
-166 -178 0
-166 -179 0
-166 -180 0
-167 -168 0
-167 -169 0
-167 -170 0
-167 -171 0
-167 -172 0
-167 -173 0
-167 -174 0
-167 -175 0
-167 -176 0
-167 -177 0
-167 -178 0
-167 -179 0
-167 -180 0
-168 -169 0
-168 -170 0
-168 -171 0
-168 -172 0
-168 -173 0
-168 -174 0
-168 -175 0
-168 -176 0
-168 -177 0
-168 -178 0
-168 -179 0
-168 -180 0
-169 -170 0
-169 -171 0
-169 -172 0
-169 -173 0
-169 -174 0
-169 -175 0
-169 -176 0
-169 -177 0
-169 -178 0
-169 -179 0
-169 -180 0
-170 -171 0
-170 -172 0
-170 -173 0
-170 -174 0
-170 -175 0
-170 -176 0
-170 -177 0
-170 -178 0
-170 -179 0
-170 -180 0
-171 -172 0
-171 -173 0
-171 -174 0
-171 -175 0
-171 -176 0
-171 -177 0
-171 -178 0
-171 -179 0
-171 -180 0
-172 -173 0
-172 -174 0
-172 -175 0
-172 -176 0
-172 -177 0
-172 -178 0
-172 -179 0
-172 -180 0
-173 -174 0
-173 -175 0
-173 -176 0
-173 -177 0
-173 -178 0
-173 -179 0
-173 -180 0
-174 -175 0
-174 -176 0
-174 -177 0
-174 -178 0
-174 -179 0
-174 -180 0
-175 -176 0
-175 -177 0
-175 -178 0
-175 -179 0
-175 -180 0
-176 -177 0
-176 -178 0
-176 -179 0
-176 -180 0
-177 -178 0
-177 -179 0
-177 -180 0
-178 -179 0
-178 -180 0
-179 -180 0
-1 -19 0
-1 -37 0
-1 -55 0
-1 -73 0
-1 -91 0
-1 -109 0
-1 -127 0
-1 -145 0
-1 -163 0
-19 -37 0
-19 -55 0
-19 -73 0
-19 -91 0
-19 -109 0
-19 -127 0
-19 -145 0
-19 -163 0
-37 -55 0
-37 -73 0
-37 -91 0
-37 -109 0
-37 -127 0
-37 -145 0
-37 -163 0
-55 -73 0
-55 -91 0
-55 -109 0
-55 -127 0
-55 -145 0
-55 -163 0
-73 -91 0
-73 -109 0
-73 -127 0
-73 -145 0
-73 -163 0
-91 -109 0
-91 -127 0
-91 -145 0
-91 -163 0
-109 -127 0
-109 -145 0
-109 -163 0
-127 -145 0
-127 -163 0
-145 -163 0
-2 -20 0
-2 -38 0
-2 -56 0
-2 -74 0
-2 -92 0
-2 -110 0
-2 -128 0
-2 -146 0
-2 -164 0
-20 -38 0
-20 -56 0
-20 -74 0
-20 -92 0
-20 -110 0
-20 -128 0
-20 -146 0
-20 -164 0
-38 -56 0
-38 -74 0
-38 -92 0
-38 -110 0
-38 -128 0
-38 -146 0
-38 -164 0
-56 -74 0
-56 -92 0
-56 -110 0
-56 -128 0
-56 -146 0
-56 -164 0
-74 -92 0
-74 -110 0
-74 -128 0
-74 -146 0
-74 -164 0
-92 -110 0
-92 -128 0
-92 -146 0
-92 -164 0
-110 -128 0
-110 -146 0
-110 -164 0
-128 -146 0
-128 -164 0
-146 -164 0
-3 -21 0
-3 -39 0
-3 -57 0
-3 -75 0
-3 -93 0
-3 -111 0
-3 -129 0
-3 -147 0
-3 -165 0
-21 -39 0
-21 -57 0
-21 -75 0
-21 -93 0
-21 -111 0
-21 -129 0
-21 -147 0
-21 -165 0
-39 -57 0
-39 -75 0
-39 -93 0
-39 -111 0
-39 -129 0
-39 -147 0
-39 -165 0
-57 -75 0
-57 -93 0
-57 -111 0
-57 -129 0
-57 -147 0
-57 -165 0
-75 -93 0
-75 -111 0
-75 -129 0
-75 -147 0
-75 -165 0
-93 -111 0
-93 -129 0
-93 -147 0
-93 -165 0
-111 -129 0
-111 -147 0
-111 -165 0
-129 -147 0
-129 -165 0
-147 -165 0
-4 -22 0
-4 -40 0
-4 -58 0
-4 -76 0
-4 -94 0
-4 -112 0
-4 -130 0
-4 -148 0
-4 -166 0
-22 -40 0
-22 -58 0
-22 -76 0
-22 -94 0
-22 -112 0
-22 -130 0
-22 -148 0
-22 -166 0
-40 -58 0
-40 -76 0
-40 -94 0
-40 -112 0
-40 -130 0
-40 -148 0
-40 -166 0
-58 -76 0
-58 -94 0
-58 -112 0
-58 -130 0
-58 -148 0
-58 -166 0
-76 -94 0
-76 -112 0
-76 -130 0
-76 -148 0
-76 -166 0
-94 -112 0
-94 -130 0
-94 -148 0
-94 -166 0
-112 -130 0
-112 -148 0
-112 -166 0
-130 -148 0
-130 -166 0
-148 -166 0
-5 -23 0
-5 -41 0
-5 -59 0
-5 -77 0
-5 -95 0
-5 -113 0
-5 -131 0
-5 -149 0
-5 -167 0
-23 -41 0
-23 -59 0
-23 -77 0
-23 -95 0
-23 -113 0
-23 -131 0
-23 -149 0
-23 -167 0
-41 -59 0
-41 -77 0
-41 -95 0
-41 -113 0
-41 -131 0
-41 -149 0
-41 -167 0
-59 -77 0
-59 -95 0
-59 -113 0
-59 -131 0
-59 -149 0
-59 -167 0
-77 -95 0
-77 -113 0
-77 -131 0
-77 -149 0
-77 -167 0
-95 -113 0
-95 -131 0
-95 -149 0
-95 -167 0
-113 -131 0
-113 -149 0
-113 -167 0
-131 -149 0
-131 -167 0
-149 -167 0
-6 -24 0
-6 -42 0
-6 -60 0
-6 -78 0
-6 -96 0
-6 -114 0
-6 -132 0
-6 -150 0
-6 -168 0
-24 -42 0
-24 -60 0
-24 -78 0
-24 -96 0
-24 -114 0
-24 -132 0
-24 -150 0
-24 -168 0
-42 -60 0
-42 -78 0
-42 -96 0
-42 -114 0
-42 -132 0
-42 -150 0
-42 -168 0
-60 -78 0
-60 -96 0
-60 -114 0
-60 -132 0
-60 -150 0
-60 -168 0
-78 -96 0
-78 -114 0
-78 -132 0
-78 -150 0
-78 -168 0
-96 -114 0
-96 -132 0
-96 -150 0
-96 -168 0
-114 -132 0
-114 -150 0
-114 -168 0
-132 -150 0
-132 -168 0
-150 -168 0
-7 -25 0
-7 -43 0
-7 -61 0
-7 -79 0
-7 -97 0
-7 -115 0
-7 -133 0
-7 -151 0
-7 -169 0
-25 -43 0
-25 -61 0
-25 -79 0
-25 -97 0
-25 -115 0
-25 -133 0
-25 -151 0
-25 -169 0
-43 -61 0
-43 -79 0
-43 -97 0
-43 -115 0
-43 -133 0
-43 -151 0
-43 -169 0
-61 -79 0
-61 -97 0
-61 -115 0
-61 -133 0
-61 -151 0
-61 -169 0
-79 -97 0
-79 -115 0
-79 -133 0
-79 -151 0
-79 -169 0
-97 -115 0
-97 -133 0
-97 -151 0
-97 -169 0
-115 -133 0
-115 -151 0
-115 -169 0
-133 -151 0
-133 -169 0
-151 -169 0
-8 -26 0
-8 -44 0
-8 -62 0
-8 -80 0
-8 -98 0
-8 -116 0
-8 -134 0
-8 -152 0
-8 -170 0
-26 -44 0
-26 -62 0
-26 -80 0
-26 -98 0
-26 -116 0
-26 -134 0
-26 -152 0
-26 -170 0
-44 -62 0
-44 -80 0
-44 -98 0
-44 -116 0
-44 -134 0
-44 -152 0
-44 -170 0
-62 -80 0
-62 -98 0
-62 -116 0
-62 -134 0
-62 -152 0
-62 -170 0
-80 -98 0
-80 -116 0
-80 -134 0
-80 -152 0
-80 -170 0
-98 -116 0
-98 -134 0
-98 -152 0
-98 -170 0
-116 -134 0
-116 -152 0
-116 -170 0
-134 -152 0
-134 -170 0
-152 -170 0
-9 -27 0
-9 -45 0
-9 -63 0
-9 -81 0
-9 -99 0
-9 -117 0
-9 -135 0
-9 -153 0
-9 -171 0
-27 -45 0
-27 -63 0
-27 -81 0
-27 -99 0
-27 -117 0
-27 -135 0
-27 -153 0
-27 -171 0
-45 -63 0
-45 -81 0
-45 -99 0
-45 -117 0
-45 -135 0
-45 -153 0
-45 -171 0
-63 -81 0
-63 -99 0
-63 -117 0
-63 -135 0
-63 -153 0
-63 -171 0
-81 -99 0
-81 -117 0
-81 -135 0
-81 -153 0
-81 -171 0
-99 -117 0
-99 -135 0
-99 -153 0
-99 -171 0
-117 -135 0
-117 -153 0
-117 -171 0
-135 -153 0
-135 -171 0
-153 -171 0
-10 -28 0
-10 -46 0
-10 -64 0
-10 -82 0
-10 -100 0
-10 -118 0
-10 -136 0
-10 -154 0
-10 -172 0
-28 -46 0
-28 -64 0
-28 -82 0
-28 -100 0
-28 -118 0
-28 -136 0
-28 -154 0
-28 -172 0
-46 -64 0
-46 -82 0
-46 -100 0
-46 -118 0
-46 -136 0
-46 -154 0
-46 -172 0
-64 -82 0
-64 -100 0
-64 -118 0
-64 -136 0
-64 -154 0
-64 -172 0
-82 -100 0
-82 -118 0
-82 -136 0
-82 -154 0
-82 -172 0
-100 -118 0
-100 -136 0
-100 -154 0
-100 -172 0
-118 -136 0
-118 -154 0
-118 -172 0
-136 -154 0
-136 -172 0
-154 -172 0
-11 -29 0
-11 -47 0
-11 -65 0
-11 -83 0
-11 -101 0
-11 -119 0
-11 -137 0
-11 -155 0
-11 -173 0
-29 -47 0
-29 -65 0
-29 -83 0
-29 -101 0
-29 -119 0
-29 -137 0
-29 -155 0
-29 -173 0
-47 -65 0
-47 -83 0
-47 -101 0
-47 -119 0
-47 -137 0
-47 -155 0
-47 -173 0
-65 -83 0
-65 -101 0
-65 -119 0
-65 -137 0
-65 -155 0
-65 -173 0
-83 -101 0
-83 -119 0
-83 -137 0
-83 -155 0
-83 -173 0
-101 -119 0
-101 -137 0
-101 -155 0
-101 -173 0
-119 -137 0
-119 -155 0
-119 -173 0
-137 -155 0
-137 -173 0
-155 -173 0
-12 -30 0
-12 -48 0
-12 -66 0
-12 -84 0
-12 -102 0
-12 -120 0
-12 -138 0
-12 -156 0
-12 -174 0
-30 -48 0
-30 -66 0
-30 -84 0
-30 -102 0
-30 -120 0
-30 -138 0
-30 -156 0
-30 -174 0
-48 -66 0
-48 -84 0
-48 -102 0
-48 -120 0
-48 -138 0
-48 -156 0
-48 -174 0
-66 -84 0
-66 -102 0
-66 -120 0
-66 -138 0
-66 -156 0
-66 -174 0
-84 -102 0
-84 -120 0
-84 -138 0
-84 -156 0
-84 -174 0
-102 -120 0
-102 -138 0
-102 -156 0
-102 -174 0
-120 -138 0
-120 -156 0
-120 -174 0
-138 -156 0
-138 -174 0
-156 -174 0
-13 -31 0
-13 -49 0
-13 -67 0
-13 -85 0
-13 -103 0
-13 -121 0
-13 -139 0
-13 -157 0
-13 -175 0
-31 -49 0
-31 -67 0
-31 -85 0
-31 -103 0
-31 -121 0
-31 -139 0
-31 -157 0
-31 -175 0
-49 -67 0
-49 -85 0
-49 -103 0
-49 -121 0
-49 -139 0
-49 -157 0
-49 -175 0
-67 -85 0
-67 -103 0
-67 -121 0
-67 -139 0
-67 -157 0
-67 -175 0
-85 -103 0
-85 -121 0
-85 -139 0
-85 -157 0
-85 -175 0
-103 -121 0
-103 -139 0
-103 -157 0
-103 -175 0
-121 -139 0
-121 -157 0
-121 -175 0
-139 -157 0
-139 -175 0
-157 -175 0
-14 -32 0
-14 -50 0
-14 -68 0
-14 -86 0
-14 -104 0
-14 -122 0
-14 -140 0
-14 -158 0
-14 -176 0
-32 -50 0
-32 -68 0
-32 -86 0
-32 -104 0
-32 -122 0
-32 -140 0
-32 -158 0
-32 -176 0
-50 -68 0
-50 -86 0
-50 -104 0
-50 -122 0
-50 -140 0
-50 -158 0
-50 -176 0
-68 -86 0
-68 -104 0
-68 -122 0
-68 -140 0
-68 -158 0
-68 -176 0
-86 -104 0
-86 -122 0
-86 -140 0
-86 -158 0
-86 -176 0
-104 -122 0
-104 -140 0
-104 -158 0
-104 -176 0
-122 -140 0
-122 -158 0
-122 -176 0
-140 -158 0
-140 -176 0
-158 -176 0
-15 -33 0
-15 -51 0
-15 -69 0
-15 -87 0
-15 -105 0
-15 -123 0
-15 -141 0
-15 -159 0
-15 -177 0
-33 -51 0
-33 -69 0
-33 -87 0
-33 -105 0
-33 -123 0
-33 -141 0
-33 -159 0
-33 -177 0
-51 -69 0
-51 -87 0
-51 -105 0
-51 -123 0
-51 -141 0
-51 -159 0
-51 -177 0
-69 -87 0
-69 -105 0
-69 -123 0
-69 -141 0
-69 -159 0
-69 -177 0
-87 -105 0
-87 -123 0
-87 -141 0
-87 -159 0
-87 -177 0
-105 -123 0
-105 -141 0
-105 -159 0
-105 -177 0
-123 -141 0
-123 -159 0
-123 -177 0
-141 -159 0
-141 -177 0
-159 -177 0
-16 -34 0
-16 -52 0
-16 -70 0
-16 -88 0
-16 -106 0
-16 -124 0
-16 -142 0
-16 -160 0
-16 -178 0
-34 -52 0
-34 -70 0
-34 -88 0
-34 -106 0
-34 -124 0
-34 -142 0
-34 -160 0
-34 -178 0
-52 -70 0
-52 -88 0
-52 -106 0
-52 -124 0
-52 -142 0
-52 -160 0
-52 -178 0
-70 -88 0
-70 -106 0
-70 -124 0
-70 -142 0
-70 -160 0
-70 -178 0
-88 -106 0
-88 -124 0
-88 -142 0
-88 -160 0
-88 -178 0
-106 -124 0
-106 -142 0
-106 -160 0
-106 -178 0
-124 -142 0
-124 -160 0
-124 -178 0
-142 -160 0
-142 -178 0
-160 -178 0
-17 -35 0
-17 -53 0
-17 -71 0
-17 -89 0
-17 -107 0
-17 -125 0
-17 -143 0
-17 -161 0
-17 -179 0
-35 -53 0
-35 -71 0
-35 -89 0
-35 -107 0
-35 -125 0
-35 -143 0
-35 -161 0
-35 -179 0
-53 -71 0
-53 -89 0
-53 -107 0
-53 -125 0
-53 -143 0
-53 -161 0
-53 -179 0
-71 -89 0
-71 -107 0
-71 -125 0
-71 -143 0
-71 -161 0
-71 -179 0
-89 -107 0
-89 -125 0
-89 -143 0
-89 -161 0
-89 -179 0
-107 -125 0
-107 -143 0
-107 -161 0
-107 -179 0
-125 -143 0
-125 -161 0
-125 -179 0
-143 -161 0
-143 -179 0
-161 -179 0
-18 -36 0
-18 -54 0
-18 -72 0
-18 -90 0
-18 -108 0
-18 -126 0
-18 -144 0
-18 -162 0
-18 -180 0
-36 -54 0
-36 -72 0
-36 -90 0
-36 -108 0
-36 -126 0
-36 -144 0
-36 -162 0
-36 -180 0
-54 -72 0
-54 -90 0
-54 -108 0
-54 -126 0
-54 -144 0
-54 -162 0
-54 -180 0
-72 -90 0
-72 -108 0
-72 -126 0
-72 -144 0
-72 -162 0
-72 -180 0
-90 -108 0
-90 -126 0
-90 -144 0
-90 -162 0
-90 -180 0
-108 -126 0
-108 -144 0
-108 -162 0
-108 -180 0
-126 -144 0
-126 -162 0
-126 -180 0
-144 -162 0
-144 -180 0
-162 -180 0
-1 -20 0
-2 -19 0
-3 -22 0
-4 -21 0
-5 -24 0
-6 -23 0
-7 -26 0
-8 -25 0
-9 -28 0
-10 -27 0
-11 -30 0
-12 -29 0
-13 -32 0
-14 -31 0
-15 -34 0
-16 -33 0
-17 -36 0
-18 -35 0
-1 -38 0
-2 -37 0
-3 -40 0
-4 -39 0
-5 -42 0
-6 -41 0
-7 -44 0
-8 -43 0
-9 -46 0
-10 -45 0
-11 -48 0
-12 -47 0
-13 -50 0
-14 -49 0
-15 -52 0
-16 -51 0
-17 -54 0
-18 -53 0
-1 -56 0
-2 -55 0
-3 -58 0
-4 -57 0
-5 -60 0
-6 -59 0
-7 -62 0
-8 -61 0
-9 -64 0
-10 -63 0
-11 -66 0
-12 -65 0
-13 -68 0
-14 -67 0
-15 -70 0
-16 -69 0
-17 -72 0
-18 -71 0
-1 -74 0
-2 -73 0
-3 -76 0
-4 -75 0
-5 -78 0
-6 -77 0
-7 -80 0
-8 -79 0
-9 -82 0
-10 -81 0
-11 -84 0
-12 -83 0
-13 -86 0
-14 -85 0
-15 -88 0
-16 -87 0
-17 -90 0
-18 -89 0
-1 -92 0
-2 -91 0
-3 -94 0
-4 -93 0
-5 -96 0
-6 -95 0
-7 -98 0
-8 -97 0
-9 -100 0
-10 -99 0
-11 -102 0
-12 -101 0
-13 -104 0
-14 -103 0
-15 -106 0
-16 -105 0
-17 -108 0
-18 -107 0
-1 -110 0
-2 -109 0
-3 -112 0
-4 -111 0
-5 -114 0
-6 -113 0
-7 -116 0
-8 -115 0
-9 -118 0
-10 -117 0
-11 -120 0
-12 -119 0
-13 -122 0
-14 -121 0
-15 -124 0
-16 -123 0
-17 -126 0
-18 -125 0
-1 -128 0
-2 -127 0
-3 -130 0
-4 -129 0
-5 -132 0
-6 -131 0
-7 -134 0
-8 -133 0
-9 -136 0
-10 -135 0
-11 -138 0
-12 -137 0
-13 -140 0
-14 -139 0
-15 -142 0
-16 -141 0
-17 -144 0
-18 -143 0
-1 -146 0
-2 -145 0
-3 -148 0
-4 -147 0
-5 -150 0
-6 -149 0
-7 -152 0
-8 -151 0
-9 -154 0
-10 -153 0
-11 -156 0
-12 -155 0
-13 -158 0
-14 -157 0
-15 -160 0
-16 -159 0
-17 -162 0
-18 -161 0
-1 -164 0
-2 -163 0
-3 -166 0
-4 -165 0
-5 -168 0
-6 -167 0
-7 -170 0
-8 -169 0
-9 -172 0
-10 -171 0
-11 -174 0
-12 -173 0
-13 -176 0
-14 -175 0
-15 -178 0
-16 -177 0
-17 -180 0
-18 -179 0
-19 -38 0
-20 -37 0
-21 -40 0
-22 -39 0
-23 -42 0
-24 -41 0
-25 -44 0
-26 -43 0
-27 -46 0
-28 -45 0
-29 -48 0
-30 -47 0
-31 -50 0
-32 -49 0
-33 -52 0
-34 -51 0
-35 -54 0
-36 -53 0
-19 -56 0
-20 -55 0
-21 -58 0
-22 -57 0
-23 -60 0
-24 -59 0
-25 -62 0
-26 -61 0
-27 -64 0
-28 -63 0
-29 -66 0
-30 -65 0
-31 -68 0
-32 -67 0
-33 -70 0
-34 -69 0
-35 -72 0
-36 -71 0
-19 -74 0
-20 -73 0
-21 -76 0
-22 -75 0
-23 -78 0
-24 -77 0
-25 -80 0
-26 -79 0
-27 -82 0
-28 -81 0
-29 -84 0
-30 -83 0
-31 -86 0
-32 -85 0
-33 -88 0
-34 -87 0
-35 -90 0
-36 -89 0
-19 -92 0
-20 -91 0
-21 -94 0
-22 -93 0
-23 -96 0
-24 -95 0
-25 -98 0
-26 -97 0
-27 -100 0
-28 -99 0
-29 -102 0
-30 -101 0
-31 -104 0
-32 -103 0
-33 -106 0
-34 -105 0
-35 -108 0
-36 -107 0
-19 -110 0
-20 -109 0
-21 -112 0
-22 -111 0
-23 -114 0
-24 -113 0
-25 -116 0
-26 -115 0
-27 -118 0
-28 -117 0
-29 -120 0
-30 -119 0
-31 -122 0
-32 -121 0
-33 -124 0
-34 -123 0
-35 -126 0
-36 -125 0
-19 -128 0
-20 -127 0
-21 -130 0
-22 -129 0
-23 -132 0
-24 -131 0
-25 -134 0
-26 -133 0
-27 -136 0
-28 -135 0
-29 -138 0
-30 -137 0
-31 -140 0
-32 -139 0
-33 -142 0
-34 -141 0
-35 -144 0
-36 -143 0
-19 -146 0
-20 -145 0
-21 -148 0
-22 -147 0
-23 -150 0
-24 -149 0
-25 -152 0
-26 -151 0
-27 -154 0
-28 -153 0
-29 -156 0
-30 -155 0
-31 -158 0
-32 -157 0
-33 -160 0
-34 -159 0
-35 -162 0
-36 -161 0
-19 -164 0
-20 -163 0
-21 -166 0
-22 -165 0
-23 -168 0
-24 -167 0
-25 -170 0
-26 -169 0
-27 -172 0
-28 -171 0
-29 -174 0
-30 -173 0
-31 -176 0
-32 -175 0
-33 -178 0
-34 -177 0
-35 -180 0
-36 -179 0
-37 -56 0
-38 -55 0
-39 -58 0
-40 -57 0
-41 -60 0
-42 -59 0
-43 -62 0
-44 -61 0
-45 -64 0
-46 -63 0
-47 -66 0
-48 -65 0
-49 -68 0
-50 -67 0
-51 -70 0
-52 -69 0
-53 -72 0
-54 -71 0
-37 -74 0
-38 -73 0
-39 -76 0
-40 -75 0
-41 -78 0
-42 -77 0
-43 -80 0
-44 -79 0
-45 -82 0
-46 -81 0
-47 -84 0
-48 -83 0
-49 -86 0
-50 -85 0
-51 -88 0
-52 -87 0
-53 -90 0
-54 -89 0
-37 -92 0
-38 -91 0
-39 -94 0
-40 -93 0
-41 -96 0
-42 -95 0
-43 -98 0
-44 -97 0
-45 -100 0
-46 -99 0
-47 -102 0
-48 -101 0
-49 -104 0
-50 -103 0
-51 -106 0
-52 -105 0
-53 -108 0
-54 -107 0
-37 -110 0
-38 -109 0
-39 -112 0
-40 -111 0
-41 -114 0
-42 -113 0
-43 -116 0
-44 -115 0
-45 -118 0
-46 -117 0
-47 -120 0
-48 -119 0
-49 -122 0
-50 -121 0
-51 -124 0
-52 -123 0
-53 -126 0
-54 -125 0
-37 -128 0
-38 -127 0
-39 -130 0
-40 -129 0
-41 -132 0
-42 -131 0
-43 -134 0
-44 -133 0
-45 -136 0
-46 -135 0
-47 -138 0
-48 -137 0
-49 -140 0
-50 -139 0
-51 -142 0
-52 -141 0
-53 -144 0
-54 -143 0
-37 -146 0
-38 -145 0
-39 -148 0
-40 -147 0
-41 -150 0
-42 -149 0
-43 -152 0
-44 -151 0
-45 -154 0
-46 -153 0
-47 -156 0
-48 -155 0
-49 -158 0
-50 -157 0
-51 -160 0
-52 -159 0
-53 -162 0
-54 -161 0
-37 -164 0
-38 -163 0
-39 -166 0
-40 -165 0
-41 -168 0
-42 -167 0
-43 -170 0
-44 -169 0
-45 -172 0
-46 -171 0
-47 -174 0
-48 -173 0
-49 -176 0
-50 -175 0
-51 -178 0
-52 -177 0
-53 -180 0
-54 -179 0
-55 -74 0
-56 -73 0
-57 -76 0
-58 -75 0
-59 -78 0
-60 -77 0
-61 -80 0
-62 -79 0
-63 -82 0
-64 -81 0
-65 -84 0
-66 -83 0
-67 -86 0
-68 -85 0
-69 -88 0
-70 -87 0
-71 -90 0
-72 -89 0
-55 -92 0
-56 -91 0
-57 -94 0
-58 -93 0
-59 -96 0
-60 -95 0
-61 -98 0
-62 -97 0
-63 -100 0
-64 -99 0
-65 -102 0
-66 -101 0
-67 -104 0
-68 -103 0
-69 -106 0
-70 -105 0
-71 -108 0
-72 -107 0
-55 -110 0
-56 -109 0
-57 -112 0
-58 -111 0
-59 -114 0
-60 -113 0
-61 -116 0
-62 -115 0
-63 -118 0
-64 -117 0
-65 -120 0
-66 -119 0
-67 -122 0
-68 -121 0
-69 -124 0
-70 -123 0
-71 -126 0
-72 -125 0
-55 -128 0
-56 -127 0
-57 -130 0
-58 -129 0
-59 -132 0
-60 -131 0
-61 -134 0
-62 -133 0
-63 -136 0
-64 -135 0
-65 -138 0
-66 -137 0
-67 -140 0
-68 -139 0
-69 -142 0
-70 -141 0
-71 -144 0
-72 -143 0
-55 -146 0
-56 -145 0
-57 -148 0
-58 -147 0
-59 -150 0
-60 -149 0
-61 -152 0
-62 -151 0
-63 -154 0
-64 -153 0
-65 -156 0
-66 -155 0
-67 -158 0
-68 -157 0
-69 -160 0
-70 -159 0
-71 -162 0
-72 -161 0
-55 -164 0
-56 -163 0
-57 -166 0
-58 -165 0
-59 -168 0
-60 -167 0
-61 -170 0
-62 -169 0
-63 -172 0
-64 -171 0
-65 -174 0
-66 -173 0
-67 -176 0
-68 -175 0
-69 -178 0
-70 -177 0
-71 -180 0
-72 -179 0
-73 -92 0
-74 -91 0
-75 -94 0
-76 -93 0
-77 -96 0
-78 -95 0
-79 -98 0
-80 -97 0
-81 -100 0
-82 -99 0
-83 -102 0
-84 -101 0
-85 -104 0
-86 -103 0
-87 -106 0
-88 -105 0
-89 -108 0
-90 -107 0
-73 -110 0
-74 -109 0
-75 -112 0
-76 -111 0
-77 -114 0
-78 -113 0
-79 -116 0
-80 -115 0
-81 -118 0
-82 -117 0
-83 -120 0
-84 -119 0
-85 -122 0
-86 -121 0
-87 -124 0
-88 -123 0
-89 -126 0
-90 -125 0
-73 -128 0
-74 -127 0
-75 -130 0
-76 -129 0
-77 -132 0
-78 -131 0
-79 -134 0
-80 -133 0
-81 -136 0
-82 -135 0
-83 -138 0
-84 -137 0
-85 -140 0
-86 -139 0
-87 -142 0
-88 -141 0
-89 -144 0
-90 -143 0
-73 -146 0
-74 -145 0
-75 -148 0
-76 -147 0
-77 -150 0
-78 -149 0
-79 -152 0
-80 -151 0
-81 -154 0
-82 -153 0
-83 -156 0
-84 -155 0
-85 -158 0
-86 -157 0
-87 -160 0
-88 -159 0
-89 -162 0
-90 -161 0
-73 -164 0
-74 -163 0
-75 -166 0
-76 -165 0
-77 -168 0
-78 -167 0
-79 -170 0
-80 -169 0
-81 -172 0
-82 -171 0
-83 -174 0
-84 -173 0
-85 -176 0
-86 -175 0
-87 -178 0
-88 -177 0
-89 -180 0
-90 -179 0
-91 -110 0
-92 -109 0
-93 -112 0
-94 -111 0
-95 -114 0
-96 -113 0
-97 -116 0
-98 -115 0
-99 -118 0
-100 -117 0
-101 -120 0
-102 -119 0
-103 -122 0
-104 -121 0
-105 -124 0
-106 -123 0
-107 -126 0
-108 -125 0
-91 -128 0
-92 -127 0
-93 -130 0
-94 -129 0
-95 -132 0
-96 -131 0
-97 -134 0
-98 -133 0
-99 -136 0
-100 -135 0
-101 -138 0
-102 -137 0
-103 -140 0
-104 -139 0
-105 -142 0
-106 -141 0
-107 -144 0
-108 -143 0
-91 -146 0
-92 -145 0
-93 -148 0
-94 -147 0
-95 -150 0
-96 -149 0
-97 -152 0
-98 -151 0
-99 -154 0
-100 -153 0
-101 -156 0
-102 -155 0
-103 -158 0
-104 -157 0
-105 -160 0
-106 -159 0
-107 -162 0
-108 -161 0
-91 -164 0
-92 -163 0
-93 -166 0
-94 -165 0
-95 -168 0
-96 -167 0
-97 -170 0
-98 -169 0
-99 -172 0
-100 -171 0
-101 -174 0
-102 -173 0
-103 -176 0
-104 -175 0
-105 -178 0
-106 -177 0
-107 -180 0
-108 -179 0
-109 -128 0
-110 -127 0
-111 -130 0
-112 -129 0
-113 -132 0
-114 -131 0
-115 -134 0
-116 -133 0
-117 -136 0
-118 -135 0
-119 -138 0
-120 -137 0
-121 -140 0
-122 -139 0
-123 -142 0
-124 -141 0
-125 -144 0
-126 -143 0
-109 -146 0
-110 -145 0
-111 -148 0
-112 -147 0
-113 -150 0
-114 -149 0
-115 -152 0
-116 -151 0
-117 -154 0
-118 -153 0
-119 -156 0
-120 -155 0
-121 -158 0
-122 -157 0
-123 -160 0
-124 -159 0
-125 -162 0
-126 -161 0
-109 -164 0
-110 -163 0
-111 -166 0
-112 -165 0
-113 -168 0
-114 -167 0
-115 -170 0
-116 -169 0
-117 -172 0
-118 -171 0
-119 -174 0
-120 -173 0
-121 -176 0
-122 -175 0
-123 -178 0
-124 -177 0
-125 -180 0
-126 -179 0
-127 -146 0
-128 -145 0
-129 -148 0
-130 -147 0
-131 -150 0
-132 -149 0
-133 -152 0
-134 -151 0
-135 -154 0
-136 -153 0
-137 -156 0
-138 -155 0
-139 -158 0
-140 -157 0
-141 -160 0
-142 -159 0
-143 -162 0
-144 -161 0
-127 -164 0
-128 -163 0
-129 -166 0
-130 -165 0
-131 -168 0
-132 -167 0
-133 -170 0
-134 -169 0
-135 -172 0
-136 -171 0
-137 -174 0
-138 -173 0
-139 -176 0
-140 -175 0
-141 -178 0
-142 -177 0
-143 -180 0
-144 -179 0
-145 -164 0
-146 -163 0
-147 -166 0
-148 -165 0
-149 -168 0
-150 -167 0
-151 -170 0
-152 -169 0
-153 -172 0
-154 -171 0
-155 -174 0
-156 -173 0
-157 -176 0
-158 -175 0
-159 -178 0
-160 -177 0
-161 -180 0
-162 -179 0
